D = 2;
n = [ 1 1 ];
N = 8;
d = [1 1 1 1 2 2 2 2 ];
m = [
[1.00 0.31 0.33 0.49 0.72 0.38 0.47 0.98 ]
[0.31 1.00 0.76 0.03 0.91 0.36 0.06 0.35 ]
[0.33 0.76 1.00 0.12 0.71 0.65 0.46 0.79 ]
[0.49 0.03 0.12 1.00 0.29 0.31 0.70 0.08 ]
[0.72 0.91 0.71 0.29 1.00 0.92 0.44 0.48 ]
[0.38 0.36 0.65 0.31 0.92 1.00 0.64 0.83 ]
[0.47 0.06 0.46 0.70 0.44 0.64 1.00 0.50 ]
[0.98 0.35 0.79 0.08 0.48 0.83 0.50 1.00 ]
];
